Instance: E076-07s.dat
Class:  5
   75 --- number of customers (no depot)
   17 --- number of vehicles
  202 --- number of items
Capacity - height - width of vehicles
   220     40     20
Node - x - y - demand
    0    40.0    40.0     0.0
    1    22.0    22.0    18.0
    2    36.0    26.0    26.0
    3    21.0    45.0    11.0
    4    45.0    35.0    30.0
    5    55.0    20.0    21.0
    6    33.0    34.0    19.0
    7    50.0    50.0    15.0
    8    55.0    45.0    16.0
    9    26.0    59.0    29.0
   10    40.0    66.0    26.0
   11    55.0    65.0    37.0
   12    35.0    51.0    16.0
   13    62.0    35.0    12.0
   14    62.0    57.0    31.0
   15    62.0    24.0     8.0
   16    21.0    36.0    19.0
   17    33.0    44.0    20.0
   18     9.0    56.0    13.0
   19    62.0    48.0    15.0
   20    66.0    14.0    22.0
   21    44.0    13.0    28.0
   22    26.0    13.0    12.0
   23    11.0    28.0     6.0
   24     7.0    43.0    27.0
   25    17.0    64.0    14.0
   26    41.0    46.0    18.0
   27    55.0    34.0    17.0
   28    35.0    16.0    29.0
   29    52.0    26.0    13.0
   30    43.0    26.0    22.0
   31    31.0    76.0    25.0
   32    22.0    53.0    28.0
   33    26.0    29.0    27.0
   34    50.0    40.0    19.0
   35    55.0    50.0    10.0
   36    54.0    10.0    12.0
   37    60.0    15.0    14.0
   38    47.0    66.0    24.0
   39    30.0    60.0    16.0
   40    30.0    50.0    33.0
   41    12.0    17.0    15.0
   42    15.0    14.0    11.0
   43    16.0    19.0    18.0
   44    21.0    48.0    17.0
   45    50.0    30.0    21.0
   46    51.0    42.0    27.0
   47    50.0    15.0    19.0
   48    48.0    21.0    20.0
   49    12.0    38.0     5.0
   50    15.0    56.0    22.0
   51    29.0    39.0    12.0
   52    54.0    38.0    19.0
   53    55.0    57.0    22.0
   54    67.0    41.0    16.0
   55    10.0    70.0     7.0
   56     6.0    25.0    26.0
   57    65.0    27.0    14.0
   58    40.0    60.0    21.0
   59    70.0    64.0    24.0
   60    64.0     4.0    13.0
   61    36.0     6.0    15.0
   62    30.0    20.0    18.0
   63    20.0    30.0    11.0
   64    15.0     5.0    28.0
   65    50.0    70.0     9.0
   66    57.0    72.0    37.0
   67    45.0    42.0    30.0
   68    38.0    33.0    10.0
   69    50.0     4.0     8.0
   70    66.0     8.0    11.0
   71    59.0     5.0     3.0
   72    35.0    60.0     1.0
   73    27.0    24.0     6.0
   74    40.0    20.0    10.0
   75    40.0    37.0    20.0
Node - number of items - h - w for each item
    0   0
    1   2    7    4    8    3
    2   4    8    8    4    6    4    5   18    4
    3   4    7   11    7    9    9    3    5    3
    4   1    6   11
    5   3   16    4    8    4    6    3
    6   2    8    3    5    2
    7   1   13    2
    8   4    8   12    9    4    8    2    8    2
    9   2    8    7    9    3
   10   1    4   12
   11   5    7    8   11    5   14    3    5    3   21    2
   12   4    4   10    5    8   19    4   17    3
   13   2    5    4   16    3
   14   1    5    3
   15   4   17    4   11    4    8    3    8    3
   16   4    5    4    5    4   17    3   19    2
   17   4    7   12    5    4   17    3   20    2
   18   1    7    5
   19   1    4    5
   20   3    8    8   10    4    7    4
   21   2   22    3   13    2
   22   3    9    4    7    4    9    3
   23   1    8    7
   24   3    7    8   21    4    8    2
   25   2    9    6    6    4
   26   1   17    2
   27   3    6    6   18    4   17    3
   28   2    7   12    6    4
   29   1    6    4
   30   5    5   11    7    9    7    3    6    3   13    2
   31   4    5   11   18    3   14    3   13    3
   32   1    7    2
   33   3    9    4   24    3   21    2
   34   5   17    4    9    4    7    4    4    3   21    2
   35   4    6   11    5    4   19    3    5    2
   36   1    7   12
   37   4    6    8    6    5   11    4    9    3
   38   3    6    6   23    2   13    2
   39   3   23    4   11    3    8    3
   40   1   22    3
   41   5    6    9   11    5    6    5   22    3   10    2
   42   2    8    7    6    7
   43   5   24    4   11    4    8    4    7    4   13    3
   44   4    7    9    5    4   21    3   14    3
   45   2   11    4    7    2
   46   1    5    6
   47   2    6    7    8    3
   48   4    7    8    7    6    6    5    5    2
   49   4   19    4   12    3    5    3   16    2
   50   1    5   11
   51   3    7   11    6    6   17    4
   52   2    5    4   19    3
   53   3    5    6   10    4    8    4
   54   1    6    7
   55   1   14    3
   56   1   17    4
   57   1    7    8
   58   5    4    9   11    4   11    3    6    3    5    3
   59   3   22    4   12    3    5    2
   60   3    5    5    7    4   23    3
   61   3    5    9    5    4    7    2
   62   4    4    8   16    3   14    3   11    3
   63   1   22    3
   64   1    9    2
   65   1    7   10
   66   4    5   10    4    8   23    3   12    3
   67   5    5    9    8    7   11    6    6    5    8    3
   68   4    4    8    8    5    6    5    8    2
   69   4    8    6   19    4   20    3   15    2
   70   4    5    6   10    5    4    5    9    4
   71   3    4    6    4    3    4    3
   72   1    8    6
   73   3    4   11   10    4    8    4
   74   1    4    7
   75   5    8    5   10    4    6    4   11    3   12    2
